problems/csplib-prob049/set_partition_simple-models/noch/O2/minion/model_2_2-36-solution000001.eprime-solution
language ESSENCE' 1.0

letting setA_Explicit be [1, 2, 3, 4, 5, 15, 19, 20, 21, 23, 24, 25, 26, 27, 28, 29, 30, 31; int(1..18)]
letting setB_Explicit be [6, 7, 8, 9, 10, 11, 12, 13, 14, 16, 17, 18, 22, 32, 33, 34, 35, 36; int(1..18)]
