problems/csplib-prob049/set_partition_simple-models/noch/O2/minion/model_2_2-36-solution000001.solution
language Essence 1.3

letting setA be {1, 2, 3, 4, 5, 15, 19, 20, 21, 23, 24, 25, 26, 27, 28, 29, 30, 31}
letting setB be {6, 7, 8, 9, 10, 11, 12, 13, 14, 16, 17, 18, 22, 32, 33, 34, 35, 36}
